; benchmark generated from python API
(set-info :status unknown)
(declare-fun x_days () Int)
(declare-fun y_days () Int)
(assert
 (>= x_days (- 36525)))
(assert
 (<= x_days 36523))
(assert
 (>= y_days (- 36525)))
(assert
 (<= y_days 36523))
(assert
 (= x_days 7304))
(assert
 (let ((?x3432 (+ x_days 730179)))
 (let ((?x1105 (mod ?x3432 146097)))
 (let ((?x512 (div ?x1105 36524)))
 (let ((?x3559 (ite (<= 4 ?x512) 3 ?x512)))
 (let ((?x778 (- ?x1105 (* ?x3559 36524))))
 (let ((?x2029 (mod ?x778 1461)))
 (let ((?x1055 (div ?x2029 365)))
 (let ((?x1225 (ite (<= 4 ?x1055) 3 ?x1055)))
 (let ((?x1224 (+ (+ (* (div ?x3432 146097) 400) (* ?x3559 100)) (* (div ?x778 1461) 4))))
 (let ((?x1809 (+ (+ ?x1224 ?x1225) 1)))
 (let (($x1622 (or (and (= (mod ?x1809 4) 0) (and (distinct (mod ?x1809 100) 0) true)) (= (mod ?x1809 400) 0))))
 (let ((?x591 (- ?x2029 (* ?x1225 365))))
 (let ((?x1132 (ite $x1622 31 31)))
 (let (($x2371 (>= ?x591 ?x1132)))
 (let ((?x630 (ite $x2371 (+ (- ?x591 ?x1132) 1) (+ (- ?x591 (ite $x1622 0 0)) 1))))
 (let ((?x1113 (ite $x1622 60 59)))
 (let (($x438 (>= ?x591 ?x1113)))
 (let ((?x1189 (ite $x1622 91 90)))
 (let (($x440 (>= ?x591 ?x1189)))
 (let ((?x516 (ite $x440 (+ (- ?x591 ?x1189) 1) (ite $x438 (+ (- ?x591 ?x1113) 1) ?x630))))
 (let ((?x2784 (ite $x1622 121 120)))
 (let (($x2180 (>= ?x591 ?x2784)))
 (let ((?x1200 (ite $x1622 152 151)))
 (let (($x434 (>= ?x591 ?x1200)))
 (let ((?x3277 (ite $x434 (+ (- ?x591 ?x1200) 1) (ite $x2180 (+ (- ?x591 ?x2784) 1) ?x516))))
 (let ((?x690 (ite $x1622 182 181)))
 (let (($x539 (>= ?x591 ?x690)))
 (let ((?x1228 (ite $x1622 213 212)))
 (let (($x601 (>= ?x591 ?x1228)))
 (let ((?x943 (ite $x601 (+ (- ?x591 ?x1228) 1) (ite $x539 (+ (- ?x591 ?x690) 1) ?x3277))))
 (let ((?x625 (ite $x1622 244 243)))
 (let (($x457 (>= ?x591 ?x625)))
 (let ((?x613 (ite $x1622 274 273)))
 (let (($x970 (>= ?x591 ?x613)))
 (let ((?x1238 (ite $x970 (+ (- ?x591 ?x613) 1) (ite $x457 (+ (- ?x591 ?x625) 1) ?x943))))
 (let ((?x654 (ite $x1622 305 304)))
 (let (($x913 (>= ?x591 ?x654)))
 (let ((?x3081 (ite $x1622 335 334)))
 (let (($x558 (>= ?x591 ?x3081)))
 (let ((?x1520 (ite $x558 (+ (- ?x591 ?x3081) 1) (ite $x913 (+ (- ?x591 ?x654) 1) ?x1238))))
 (let ((?x699 (ite $x2180 5 (ite $x440 4 (ite $x438 3 (ite $x2371 2 1))))))
 (let ((?x572 (ite $x457 9 (ite $x601 8 (ite $x539 7 (ite $x434 6 ?x699))))))
 (let ((?x3433 (+ (ite $x558 12 (ite $x913 11 (ite $x970 10 ?x572))) (+ (* 1 12) 0))))
 (let ((?x1487 (- ?x3433 1)))
 (let ((?x2428 (+ (mod ?x1487 12) 1)))
 (let ((?x3745 (ite (or (= ?x2428 4) (= ?x2428 6) (= ?x2428 9) (= ?x2428 11)) 30 31)))
 (let (($x593 (and (= (mod (+ ?x1809 (+ 0 (div ?x1487 12))) 4) 0) (and (distinct (mod (+ ?x1809 (+ 0 (div ?x1487 12))) 100) 0) true))))
 (let (($x3300 (or $x593 (= (mod (+ ?x1809 (+ 0 (div ?x1487 12))) 400) 0))))
 (let ((?x3721 (ite (= ?x2428 2) (ite $x3300 29 28) ?x3745)))
 (let ((?x3052 (ite (> 1 ?x1520) 1 (ite (> ?x1520 ?x3721) ?x3721 ?x1520))))
 (let ((?x633 (ite (> 1 ?x3052) 1 (ite (> ?x3052 ?x3721) ?x3721 ?x3052))))
 (let ((?x1974 (ite (= 2 ?x2428) (ite $x3300 31 31) (ite (= 1 ?x2428) (ite $x3300 0 0) 0))))
 (let ((?x687 (ite (= 4 ?x2428) (ite $x3300 91 90) (ite (= 3 ?x2428) (ite $x3300 60 59) ?x1974))))
 (let ((?x1319 (ite (= 6 ?x2428) (ite $x3300 152 151) (ite (= 5 ?x2428) (ite $x3300 121 120) ?x687))))
 (let ((?x697 (ite (= 8 ?x2428) (ite $x3300 213 212) (ite (= 7 ?x2428) (ite $x3300 182 181) ?x1319))))
 (let ((?x941 (ite (= 10 ?x2428) (ite $x3300 274 273) (ite (= 9 ?x2428) (ite $x3300 244 243) ?x697))))
 (let ((?x469 (ite (= 12 ?x2428) (ite $x3300 335 334) (ite (= 11 ?x2428) (ite $x3300 305 304) ?x941))))
 (let ((?x1965 (+ (* 365 (- (+ ?x1809 (+ 0 (div ?x1487 12))) 1)) (div (- (+ ?x1809 (+ 0 (div ?x1487 12))) 1) 4))))
 (let ((?x2899 (+ (- ?x1965 (div (- (+ ?x1809 (+ 0 (div ?x1487 12))) 1) 100)) (div (- (+ ?x1809 (+ 0 (div ?x1487 12))) 1) 400))))
 (let ((?x2864 (+ (+ (- (+ (+ ?x2899 ?x469) (- ?x633 1)) 730179) 0) 730179)))
 (let ((?x1424 (mod ?x2864 146097)))
 (let ((?x3122 (div ?x1424 36524)))
 (let ((?x2924 (ite (<= 4 ?x3122) 3 ?x3122)))
 (let ((?x1876 (- ?x1424 (* ?x2924 36524))))
 (let ((?x3077 (mod ?x1876 1461)))
 (let ((?x992 (div ?x3077 365)))
 (let ((?x838 (ite (<= 4 ?x992) 3 ?x992)))
 (let ((?x2452 (+ (+ (* (div ?x2864 146097) 400) (* ?x2924 100)) (* (div ?x1876 1461) 4))))
 (let ((?x1328 (+ (+ ?x2452 ?x838) 1)))
 (let (($x3720 (or (and (= (mod ?x1328 4) 0) (and (distinct (mod ?x1328 100) 0) true)) (= (mod ?x1328 400) 0))))
 (let ((?x444 (- ?x3077 (* ?x838 365))))
 (let ((?x3676 (ite $x3720 31 31)))
 (let (($x2440 (>= ?x444 ?x3676)))
 (let ((?x415 (ite $x2440 (+ (- ?x444 ?x3676) 1) (+ (- ?x444 (ite $x3720 0 0)) 1))))
 (let ((?x3428 (ite $x3720 60 59)))
 (let (($x1432 (>= ?x444 ?x3428)))
 (let ((?x2414 (ite $x3720 91 90)))
 (let (($x1916 (>= ?x444 ?x2414)))
 (let ((?x3478 (ite $x1916 (+ (- ?x444 ?x2414) 1) (ite $x1432 (+ (- ?x444 ?x3428) 1) ?x415))))
 (let ((?x1119 (ite $x3720 121 120)))
 (let (($x2158 (>= ?x444 ?x1119)))
 (let ((?x1465 (ite $x3720 152 151)))
 (let (($x1101 (>= ?x444 ?x1465)))
 (let ((?x2559 (ite $x1101 (+ (- ?x444 ?x1465) 1) (ite $x2158 (+ (- ?x444 ?x1119) 1) ?x3478))))
 (let ((?x3163 (ite $x3720 182 181)))
 (let (($x2153 (>= ?x444 ?x3163)))
 (let ((?x1944 (ite $x3720 213 212)))
 (let (($x3869 (>= ?x444 ?x1944)))
 (let ((?x3900 (ite $x3869 (+ (- ?x444 ?x1944) 1) (ite $x2153 (+ (- ?x444 ?x3163) 1) ?x2559))))
 (let ((?x3026 (ite $x3720 244 243)))
 (let (($x1794 (>= ?x444 ?x3026)))
 (let ((?x3139 (ite $x3720 274 273)))
 (let (($x3123 (>= ?x444 ?x3139)))
 (let ((?x712 (ite $x3123 (+ (- ?x444 ?x3139) 1) (ite $x1794 (+ (- ?x444 ?x3026) 1) ?x3900))))
 (let ((?x1461 (ite $x3720 305 304)))
 (let (($x618 (>= ?x444 ?x1461)))
 (let ((?x2048 (ite $x3720 335 334)))
 (let (($x473 (>= ?x444 ?x2048)))
 (let ((?x3490 (ite $x473 (+ (- ?x444 ?x2048) 1) (ite $x618 (+ (- ?x444 ?x1461) 1) ?x712))))
 (let (($x3377 (= 0 0)))
 (let (($x511 (= (mod (ite $x3377 (+ ?x1809 (+ 0 (div ?x1487 12))) ?x1328) 400) 0)))
 (let (($x1829 (and (distinct (mod (ite $x3377 (+ ?x1809 (+ 0 (div ?x1487 12))) ?x1328) 100) 0) true)))
 (let (($x2409 (= (mod (ite $x3377 (+ ?x1809 (+ 0 (div ?x1487 12))) ?x1328) 4) 0)))
 (let (($x1341 (or (and $x2409 $x1829) $x511)))
 (let ((?x3730 (ite $x2158 5 (ite $x1916 4 (ite $x1432 3 (ite $x2440 2 1))))))
 (let ((?x1510 (ite $x1794 9 (ite $x3869 8 (ite $x2153 7 (ite $x1101 6 ?x3730))))))
 (let ((?x3520 (ite $x3377 ?x2428 (ite $x473 12 (ite $x618 11 (ite $x3123 10 ?x1510))))))
 (let ((?x2490 (ite (= 2 ?x3520) (ite $x1341 31 31) (ite (= 1 ?x3520) (ite $x1341 0 0) 0))))
 (let ((?x2747 (ite (= 4 ?x3520) (ite $x1341 91 90) (ite (= 3 ?x3520) (ite $x1341 60 59) ?x2490))))
 (let ((?x3841 (ite (= 6 ?x3520) (ite $x1341 152 151) (ite (= 5 ?x3520) (ite $x1341 121 120) ?x2747))))
 (let ((?x2890 (ite (= 8 ?x3520) (ite $x1341 213 212) (ite (= 7 ?x3520) (ite $x1341 182 181) ?x3841))))
 (let ((?x467 (ite (= 10 ?x3520) (ite $x1341 274 273) (ite (= 9 ?x3520) (ite $x1341 244 243) ?x2890))))
 (let ((?x790 (ite (= 12 ?x3520) (ite $x1341 335 334) (ite (= 11 ?x3520) (ite $x1341 305 304) ?x467))))
 (let ((?x2719 (+ ?x1809 (+ 0 (div ?x1487 12)))))
 (let ((?x3233 (ite $x3377 ?x2719 ?x1328)))
 (let ((?x3445 (- ?x3233 1)))
 (let ((?x3579 (+ (- (+ (* 365 ?x3445) (div ?x3445 4)) (div ?x3445 100)) (div ?x3445 400))))
 (= y_days (- (+ (+ ?x3579 ?x790) (- (ite $x3377 ?x633 ?x3490) 1)) 730179))))))))))))))))))))))))))))))))))))))))))))))))))))))))))))))))))))))))))))))))))))))))))))))))))))))))))))))))))))))))
(assert
 (not (= y_days 7669)))
(check-sat)
